100
32
16
32
18
24
15
4
5
7
2
19
10
25
30
6
8
8
11
18
15
7
19
25
28
14
11
18
25
31
27
1
8
11
12
13
9
29
31
13
20
10
16
29
14
10
22
8
32
10
32
1
9
8
8
25
19
6
16
1
21
14
15
19
16
20
24
9
10
7
8
11
23
21
8
28
1
22
31
32
6
28
22
8
3
18
2
16
16
26
12
30
6
20
11
32
17
22
9
17
4
10